Welcome to IBM(R) ILOG(R) CPLEX(R) Interactive Optimizer 12.8.0.0
  with Simplex, Mixed Integer & Barrier Optimizers
5725-A06 5725-A29 5724-Y48 5724-Y49 5724-Y54 5724-Y55 5655-Y21
Copyright IBM Corp. 1988, 2017.  All Rights Reserved.

Type 'help' for a list of available commands.
Type 'help' followed by a command name for more
information on commands.

CPLEX> read sat_equals_astar.lp
Problem 'sat_equals_astar.lp' read.
Read time = 0.00 sec. (0.00 ticks)
CPLEX> optimize
Tried aggregator 1 time.
MIP Presolve eliminated 16 rows and 24 columns.
All rows and columns eliminated.
Presolve time = 0.00 sec. (0.02 ticks)

Root node processing (before b&c):
  Real time             =    0.00 sec. (0.03 ticks)
Parallel b&c, 4 threads:
  Real time             =    0.00 sec. (0.00 ticks)
  Sync time (average)   =    0.00 sec.
  Wait time (average)   =    0.00 sec.
                          ------------
Total (root+branch&cut) =    0.00 sec. (0.03 ticks)

Solution pool: 1 solution saved.

MIP - Integer optimal solution:  Objective =  3.0000000000e+00
Solution time =    0.00 sec.  Iterations = 0  Nodes = 0
Deterministic time = 0.03 ticks  (16.44 ticks/sec)

CPLEX> display solution variables *
Incumbent solution
Variable Name           Solution Value
move_loc_x1_y0_x0_y0                    1.000000
move_loc_x1_y1_x1_y2                    1.000000
move_loc_x2_y2_x1_y2                    1.000000
All other variables matching '*' are 0.
CPLEX> 
